HmaxDs = 1.000000
HmaxUB_percent = 1.106329
HmaxUB_real = 6558.154734
FTnetDs = 1.500000
FTnetUB_percent = 1.902795
FTnetUB_real = 24600.859875
TIFgap = 0.400000
LimCIPF = 69.32811522
SCIP version 1.1.0 [precision: 8 byte] [memory: block] [mode: optimized] [LP solver: Clp 1.8.2]
Copyright (c) 2002-2008 Konrad-Zuse-Zentrum fuer Informationstechnik Berlin (ZIB)

reading user parameter file </home/fabio/docs/hierarquia/models/scip.set>

read problem <data.N30.I1.s1.cluster2.T6.GL1.W1.TIFgap0.4.mps.gz>
============

original problem has 320 variables (165 bin, 0 int, 0 impl, 155 cont) and 145 constraints

solve problem
=============

presolving:
(round 1) 3 del vars, 3 del conss, 4 chg bounds, 0 chg sides, 30 chg coeffs, 0 upgd conss, 0 impls, 30 clqs
(round 2) 5 del vars, 3 del conss, 4 chg bounds, 1 chg sides, 30 chg coeffs, 0 upgd conss, 0 impls, 30 clqs
(round 3) 5 del vars, 3 del conss, 4 chg bounds, 3 chg sides, 30 chg coeffs, 0 upgd conss, 0 impls, 30 clqs
(round 4) 5 del vars, 4 del conss, 4 chg bounds, 3 chg sides, 30 chg coeffs, 31 upgd conss, 0 impls, 30 clqs
(round 5) 9 del vars, 4 del conss, 4 chg bounds, 3 chg sides, 30 chg coeffs, 31 upgd conss, 3472 impls, 29 clqs
presolving (6 rounds):
 9 deleted vars, 4 deleted constraints, 4 tightened bounds, 0 added holes, 3 changed sides, 30 changed coefficients
 3472 implications, 29 cliques
presolved problem has 311 variables (161 bin, 0 int, 0 impl, 150 cont) and 141 constraints
      1 constraints of type <knapsack>
     30 constraints of type <setppc>
    110 constraints of type <linear>
Presolving Time: 0.06

 time | node  | left  |LP iter| mem |mdpt |frac |vars |cons |ccons|cols |rows |cuts |confs|strbr|  dualbound   | primalbound  |  gap   
  0.1s|     1 |     0 |   119 | 939k|   0 |  55 | 311 | 141 | 141 | 311 | 141 |   0 |   0 |   0 | 4.681147e+01 |      --      |    Inf 
  0.2s|     1 |     0 |  1127 |1038k|   0 |  49 | 311 | 141 | 141 | 311 | 166 |  25 |   0 |   0 | 6.166365e+03 |      --      |    Inf 
  0.4s|     1 |     0 |  1221 |1085k|   0 |  44 | 311 | 141 | 141 | 311 | 188 |  47 |   0 |   0 | 8.716388e+03 |      --      |    Inf 
  0.5s|     1 |     0 |  1380 |1120k|   0 |  53 | 311 | 141 | 141 | 311 | 211 |  70 |   0 |   0 | 9.524044e+03 |      --      |    Inf 
  0.7s|     1 |     0 |  1462 |1139k|   0 |  52 | 311 | 141 | 141 | 311 | 224 |  83 |   0 |   0 | 9.658090e+03 |      --      |    Inf 
  0.9s|     1 |     0 |  1512 |1152k|   0 |  53 | 311 | 141 | 141 | 311 | 232 |  91 |   0 |   0 | 9.779168e+03 |      --      |    Inf 
  1.1s|     1 |     0 |  1559 |1163k|   0 |  55 | 311 | 141 | 141 | 311 | 239 |  98 |   0 |   0 | 9.841478e+03 |      --      |    Inf 
  1.2s|     1 |     0 |  1599 |1177k|   0 |  51 | 311 | 141 | 141 | 311 | 247 | 106 |   0 |   0 | 9.976336e+03 |      --      |    Inf 
  1.5s|     1 |     0 |  1622 |1186k|   0 |  55 | 311 | 141 | 141 | 311 | 251 | 110 |   0 |   0 | 1.001595e+04 |      --      |    Inf 
  1.6s|     1 |     0 |  1669 |1190k|   0 |  53 | 311 | 141 | 141 | 311 | 254 | 113 |   0 |   0 | 1.007077e+04 |      --      |    Inf 
  1.8s|     1 |     0 |  1674 |1191k|   0 |  54 | 311 | 141 | 141 | 311 | 256 | 115 |   0 |   0 | 1.008106e+04 |      --      |    Inf 
  2.9s|     1 |     2 |  1674 |1194k|   0 |  54 | 311 | 141 | 141 | 311 | 256 | 115 |   0 |  40 | 1.008106e+04 |      --      |    Inf 
 12.1s|   100 |    10 | 13428 |1254k|  15 |  24 | 311 | 182 | 121 | 311 | 211 | 115 |  43 | 721 | 1.078826e+04 |      --      |    Inf 

SCIP Status        : problem is solved [infeasible]
Solving Time (sec) : 13.29
Solving Nodes      : 155
Primal Bound       : +1.00000000000000e+20 (0 solutions)
Dual Bound         : +1.00000000000000e+20
Gap                : 0.00 %

primal solution:
================

no solution available

Statistics
==========

SCIP Status        : problem is solved [infeasible]
Solving Time       :      13.29
Original Problem   :
  Problem name     : labtel
  Variables        : 320 (165 binary, 0 integer, 0 implicit integer, 155 continuous)
  Constraints      : 145 initial, 145 maximal
Presolved Problem  :
  Problem name     : t_labtel
  Variables        : 311 (161 binary, 0 integer, 0 implicit integer, 150 continuous)
  Constraints      : 141 initial, 211 maximal
Presolvers         :       Time  FixedVars   AggrVars   ChgTypes  ChgBounds   AddHoles    DelCons   ChgSides   ChgCoefs
  trivial          :       0.00          0          0          0          0          0          0          0          0
  dualfix          :       0.00          0          0          0          0          0          0          0          0
  boundshift       :       0.00          0          0          0          0          0          0          0          0
  inttobinary      :       0.00          0          0          0          0          0          0          0          0
  implics          :       0.00          0          0          0          0          0          0          0          0
  probing          :       0.05          4          0          0          0          0          0          0          0
  knapsack         :       0.00          0          0          0          0          0          0          0          0
  setppc           :       0.00          0          0          0          0          0          0          0          0
  linear           :       0.00          0          5          0          4          0          4          3         30
  logicor          :       0.00          0          0          0          0          0          0          0          0
  root node        :          -         22          -          -         22          -          -          -          -
Constraints        :     Number  #Separate #Propagate    #EnfoLP    #EnfoPS    Cutoffs    DomReds       Cuts      Conss   Children
  integral         :          0          0          0        121          0          6         75          0          0        166
  knapsack         :          1         11        993          0          0          0         31          0          0          0
  setppc           :         30         11       1040          0          0          2       2888          0          0          0
  linear           :        110         11       1064          0          0         41       5236          1          0          0
  logicor          :          0+         0        182          0          0          5         56          0          0          0
  countsols        :          0          0          0          0          0          0          0          0          0          0
Constraint Timings :  TotalTime   Separate  Propagate     EnfoLP     EnfoPS
  integral         :       8.48       0.00       0.00       8.48       0.00
  knapsack         :       0.00       0.00       0.00       0.00       0.00
  setppc           :       0.00       0.00       0.00       0.00       0.00
  linear           :       0.11       0.00       0.11       0.00       0.00
  logicor          :       0.00       0.00       0.00       0.00       0.00
  countsols        :       0.00       0.00       0.00       0.00       0.00
Propagators        :       Time      Calls    Cutoffs    DomReds
  rootredcost      :       0.00          0          0          0
  pseudoobj        :       0.02        667          1          0
Conflict Analysis  :       Time      Calls    Success  Conflicts   Literals    Reconvs ReconvLits   LP Iters
  propagation      :       0.00         44         43        155       30.9          0        0.0          -
  infeasible LP    :       0.00         37          1          5       11.4          0        0.0          0
  bound exceed. LP :       0.00          0          0          0        0.0          0        0.0          0
  strong branching :       0.00          0          0          0        0.0          0        0.0          0
  pseudo solution  :       0.00          0          0          0        0.0          0        0.0          -
  applied globally :          -          -          -         72       10.4          -          -          -
  applied locally  :          -          -          -          0        0.0          -          -          -
Separators         :       Time      Calls    Cutoffs    DomReds       Cuts      Conss
  cut pool         :       0.00         10          -          -         26          -    (maximal pool size: 200)
  redcost          :       0.00        133          0         13          0          0
  impliedbounds    :       0.01         11          0          0          0          0
  intobj           :       0.00          0          0          0          0          0
  gomory           :       0.05         11          0          0         11          0
  strongcg         :       0.05         11          0          0          0          0
  cmir             :       0.55         10          0          0        176          0
  flowcover        :       0.86         10          0          0         38          0
  clique           :       0.01         11          0          0          0          0
  zerohalf         :       0.00          0          0          0          0          0
  mcf              :       0.00          0          0          0          0          0
Pricers            :       Time      Calls       Vars
  problem variables:       0.00          0          0
Branching Rules    :       Time      Calls    Cutoffs    DomReds       Cuts      Conss   Children
  relpscost        :       8.48        121          6         75          0          0        166
  pscost           :       0.00          0          0          0          0          0          0
  inference        :       0.00          0          0          0          0          0          0
  mostinf          :       0.00          0          0          0          0          0          0
  leastinf         :       0.00          0          0          0          0          0          0
  fullstrong       :       0.00          0          0          0          0          0          0
  allfullstrong    :       0.00          0          0          0          0          0          0
  random           :       0.00          0          0          0          0          0          0
Primal Heuristics  :       Time      Calls      Found
  LP solutions     :       0.00          -          0
  pseudo solutions :       0.00          -          0
  oneopt           :       0.00          0          0
  veclendiving     :       0.00          0          0
  objpscostdiving  :       0.00          0          0
  rootsoldiving    :       0.00          0          0
  linesearchdiving :       0.00          0          0
  guideddiving     :       0.00          0          0
  crossover        :       0.00          0          0
  pscostdiving     :       0.05          1          0
  coefdiving       :       0.11          1          0
  simplerounding   :       0.00          0          0
  rounding         :       0.00        116          0
  shifting         :       0.02         17          0
  intshifting      :       0.00          2          0
  fixandinfer      :       0.00          0          0
  feaspump         :       0.07          1          0
  fracdiving       :       0.02          1          0
  intdiving        :       0.00          0          0
  actconsdiving    :       0.00          0          0
  octane           :       0.00          0          0
  rens             :       0.57          1          0
  rins             :       0.00          0          0
  localbranching   :       0.00          0          0
  mutation         :       0.00          0          0
  dins             :       0.00          0          0
LP                 :       Time      Calls Iterations  Iter/call   Iter/sec
  primal LP        :       0.01          0          0       0.00          -
  dual LP          :       2.17        175      16003      91.45    7374.65
  barrier LP       :       0.00          0          0       0.00          -
  diving/probing LP:       0.24         54       2092      38.74    8716.67
  strong branching :       8.48        781      80232     102.73    9461.32
    (at root node) :          -         40       4600     115.00          -
  conflict analysis:       0.00          0          0       0.00          -
B&B Tree           :
  number of runs   :          1
  nodes            :        155
  nodes (total)    :        155
  nodes left       :          0
  max depth        :         15
  max depth (total):         15
  backtracks       :         38 (24.5%)
  delayed cutoffs  :         12
  repropagations   :         64 (1573 domain reductions, 10 cutoffs)
  avg switch length:       2.94
  switching time   :       0.06
Solution           :
  Solutions found  :          0 (0 improvements)
  Primal Bound     : infeasible
  Dual Bound       :          -
  Gap              :       0.00 %
  Root Dual Bound  : +1.00810580015694e+04
